NAME: random-22-9977
TYPE: TSP
COMMENT: size=22 seed=9977
DIMENSION: 46
EDGE_WEIGHT_TYPE: EUC_2D
NODE_COORD_SECTION
+0 439 409
-0 439 409
+1 805 696
-1 45 675
+2 52 418
-2 458 451
+3 54 466
-3 448 683
+4 167 61
-4 905 22
+5 276 516
-5 921 935
+6 146 262
-6 424 578
+7 182 530
-7 715 214
+8 378 828
-8 449 163
+9 266 311
-9 794 449
+10 551 650
-10 738 420
+11 345 790
-11 9 485
+12 698 751
-12 368 879
+13 32 214
-13 788 63
+14 257 607
-14 873 443
+15 219 331
-15 676 694
+16 156 965
-16 744 81
+17 371 996
-17 381 133
+18 87 2
-18 710 727
+19 515 819
-19 966 65
+20 782 88
-20 307 881
+21 795 355
-21 370 369
+22 390 491
-22 754 939
PRECEDENCE_SECTION
+0 -0
+1 -1
+2 -2
+3 -3
+4 -4
+5 -5
+6 -6
+7 -7
+8 -8
+9 -9
+10 -10
+11 -11
+12 -12
+13 -13
+14 -14
+15 -15
+16 -16
+17 -17
+18 -18
+19 -19
+20 -20
+21 -21
+22 -22
EOF
